138130
0,86,43,65,58,9,26,27,57,75,23,101,73,88,92,11,28,29,54,4,51,96,7,105,97,64,30,12,87,68,80,41,18,98,67,49,8,91,22,79,56,82,33,25,13,46,60,102,3,14,74,34,99,50,81,71,44,24,85,45,76,5,39,55,19,15,63,89,16,20,21,61,1,32,62,31,6,52,83,38,36,48,17,69,100,37,94,53,70,35,72,47,84,10,40,66,103,104,2,93,77,95,59,90,78,42